00:00.10 clingo version 5.5.1
00:00.10 Reading from ...ols/../encodings/CTW_nat_optimal_V2.lp ...
01:43.132 Solving...
30:00.10 UNKNOWN
30:00.10 
30:00.10 TIME LIMIT   : 1
30:00.10 Models       : 0+
30:00.10 Calls        : 1
30:00.10 Time         : 1800.000s (Solving: 1696.88s 1st Model: 0.00s Unsat: 0.00s)
30:00.10 CPU Time     : 1799.929s
